p cnf 484 1
484 0
w 1 0.082268
w 2 1 0
w 2 -1 1
w 3 2 1
w 3 -2 0
w 4 3 0.740189
w 4 -3 0.938983
w 5 4 1
w 5 -4 0
w 6 5 0
w 6 -5 1
w 7 6 0.366622
w 7 -6 0.725667
w 8 7 0.253635
w 8 -7 0.98647
w 9 8 0
w 9 -8 1
w 10 9 0.904842
w 10 -9 0.285914
w 11 10 0
w 11 -10 1
w 12 11 0.459149
w 12 -11 0.0470468
w 13 12 0.448746
w 13 -12 0.719384
w 14 13 0.0283831
w 14 -13 0.386128
w 15 14 0
w 15 -14 1
w 16 15 1
w 16 -15 0
w 17 16 0
w 17 -16 1
w 18 17 1
w 18 -17 0
w 19 18 0
w 19 -18 1
w 20 19 1
w 20 -19 0
w 21 20 0
w 21 -20 1
w 22 21 1
w 22 -21 0
w 23 1 0
w 23 -1 1
w 24 23 2 0
w 24 23 -2 1
w 24 -23 2 1
w 24 -23 -2 1
w 25 24 3 1
w 25 24 -3 0
w 25 -24 3 0
w 25 -24 -3 1
w 26 25 4 0
w 26 25 -4 1
w 26 -25 4 0
w 26 -25 -4 0
w 27 26 5 0
w 27 26 -5 0
w 27 -26 5 1
w 27 -26 -5 1
w 28 27 6 0
w 28 27 -6 0
w 28 -27 6 1
w 28 -27 -6 0
w 29 28 7 0.927164
w 29 28 -7 0.378695
w 29 -28 7 0.951399
w 29 -28 -7 0.933766
w 30 29 8 1
w 30 29 -8 0
w 30 -29 8 0
w 30 -29 -8 1
w 31 30 9 0.70597
w 31 30 -9 0.640799
w 31 -30 9 0.993403
w 31 -30 -9 0.274216
w 32 31 10 0
w 32 31 -10 0
w 32 -31 10 0
w 32 -31 -10 1
w 33 32 11 0.85525
w 33 32 -11 0.996499
w 33 -32 11 0.0805832
w 33 -32 -11 0.735849
w 34 33 12 1
w 34 33 -12 1
w 34 -33 12 0
w 34 -33 -12 1
w 35 34 13 1
w 35 34 -13 1
w 35 -34 13 0
w 35 -34 -13 0
w 36 35 14 0.59239
w 36 35 -14 0.370234
w 36 -35 14 0.945358
w 36 -35 -14 0.217842
w 37 36 15 1
w 37 36 -15 0
w 37 -36 15 1
w 37 -36 -15 1
w 38 37 16 1
w 38 37 -16 1
w 38 -37 16 0
w 38 -37 -16 1
w 39 38 17 0
w 39 38 -17 0
w 39 -38 17 0
w 39 -38 -17 1
w 40 39 18 1
w 40 39 -18 0
w 40 -39 18 1
w 40 -39 -18 0
w 41 40 19 1
w 41 40 -19 1
w 41 -40 19 0
w 41 -40 -19 1
w 42 41 20 0.255261
w 42 41 -20 0.96692
w 42 -41 20 0.359871
w 42 -41 -20 0.200619
w 43 42 21 1
w 43 42 -21 1
w 43 -42 21 1
w 43 -42 -21 0
w 44 43 22 0.586576
w 44 43 -22 0.453482
w 44 -43 22 0.913234
w 44 -43 -22 0.574375
w 45 23 0
w 45 -23 1
w 46 45 24 1
w 46 45 -24 0
w 46 -45 24 1
w 46 -45 -24 1
w 47 46 25 0
w 47 46 -25 0
w 47 -46 25 0
w 47 -46 -25 1
w 48 47 26 1
w 48 47 -26 0
w 48 -47 26 1
w 48 -47 -26 1
w 49 48 27 1
w 49 48 -27 0
w 49 -48 27 1
w 49 -48 -27 0
w 50 49 28 0
w 50 49 -28 1
w 50 -49 28 0
w 50 -49 -28 1
w 51 50 29 0
w 51 50 -29 0
w 51 -50 29 0
w 51 -50 -29 1
w 52 51 30 0
w 52 51 -30 1
w 52 -51 30 1
w 52 -51 -30 1
w 53 52 31 1
w 53 52 -31 1
w 53 -52 31 0
w 53 -52 -31 1
w 54 53 32 0.36346
w 54 53 -32 0.757553
w 54 -53 32 0.557813
w 54 -53 -32 0.792953
w 55 54 33 1
w 55 54 -33 0
w 55 -54 33 0
w 55 -54 -33 0
w 56 55 34 0.76881
w 56 55 -34 0.9886
w 56 -55 34 0.395123
w 56 -55 -34 0.637226
w 57 56 35 0.60628
w 57 56 -35 0.959124
w 57 -56 35 0.680356
w 57 -56 -35 0.391812
w 58 57 36 0.785928
w 58 57 -36 0.599594
w 58 -57 36 0.892338
w 58 -57 -36 0.58092
w 59 58 37 0
w 59 58 -37 1
w 59 -58 37 1
w 59 -58 -37 0
w 60 59 38 0
w 60 59 -38 1
w 60 -59 38 0
w 60 -59 -38 1
w 61 60 39 0
w 61 60 -39 1
w 61 -60 39 0
w 61 -60 -39 0
w 62 61 40 0
w 62 61 -40 1
w 62 -61 40 0
w 62 -61 -40 0
w 63 62 41 0
w 63 62 -41 1
w 63 -62 41 0
w 63 -62 -41 1
w 64 63 42 0.784118
w 64 63 -42 0.606785
w 64 -63 42 0.404491
w 64 -63 -42 0.676456
w 65 64 43 0
w 65 64 -43 1
w 65 -64 43 1
w 65 -64 -43 1
w 66 65 44 0.257796
w 66 65 -44 0.253459
w 66 -65 44 0.617496
w 66 -65 -44 0.299019
w 67 45 1
w 67 -45 0
w 68 67 46 0
w 68 67 -46 1
w 68 -67 46 1
w 68 -67 -46 0
w 69 68 47 1
w 69 68 -47 0
w 69 -68 47 0
w 69 -68 -47 0
w 70 69 48 1
w 70 69 -48 0
w 70 -69 48 0
w 70 -69 -48 0
w 71 70 49 0
w 71 70 -49 0
w 71 -70 49 1
w 71 -70 -49 0
w 72 71 50 1
w 72 71 -50 1
w 72 -71 50 0
w 72 -71 -50 0
w 73 72 51 0.398475
w 73 72 -51 0.251897
w 73 -72 51 0.254331
w 73 -72 -51 0.432127
w 74 73 52 1
w 74 73 -52 0
w 74 -73 52 1
w 74 -73 -52 0
w 75 74 53 1
w 75 74 -53 1
w 75 -74 53 0
w 75 -74 -53 1
w 76 75 54 1
w 76 75 -54 0
w 76 -75 54 0
w 76 -75 -54 1
w 77 76 55 0
w 77 76 -55 1
w 77 -76 55 1
w 77 -76 -55 1
w 78 77 56 0.236705
w 78 77 -56 0.160982
w 78 -77 56 0.528952
w 78 -77 -56 0.381721
w 79 78 57 0.484264
w 79 78 -57 0.780195
w 79 -78 57 0.0472808
w 79 -78 -57 0.738595
w 80 79 58 1
w 80 79 -58 1
w 80 -79 58 1
w 80 -79 -58 0
w 81 80 59 0.643195
w 81 80 -59 0.553678
w 81 -80 59 0.020901
w 81 -80 -59 0.178621
w 82 81 60 0
w 82 81 -60 1
w 82 -81 60 0
w 82 -81 -60 0
w 83 82 61 1
w 83 82 -61 0
w 83 -82 61 0
w 83 -82 -61 0
w 84 83 62 1
w 84 83 -62 1
w 84 -83 62 0
w 84 -83 -62 0
w 85 84 63 1
w 85 84 -63 0
w 85 -84 63 0
w 85 -84 -63 0
w 86 85 64 1
w 86 85 -64 1
w 86 -85 64 1
w 86 -85 -64 0
w 87 86 65 1
w 87 86 -65 1
w 87 -86 65 1
w 87 -86 -65 0
w 88 87 66 1
w 88 87 -66 0
w 88 -87 66 0
w 88 -87 -66 0
w 89 67 0.47954
w 89 -67 0.355911
w 90 89 68 0.982041
w 90 89 -68 0.11084
w 90 -89 68 0.669317
w 90 -89 -68 0.315978
w 91 90 69 0
w 91 90 -69 0
w 91 -90 69 1
w 91 -90 -69 1
w 92 91 70 0
w 92 91 -70 1
w 92 -91 70 1
w 92 -91 -70 1
w 93 92 71 0.0381766
w 93 92 -71 0.436433
w 93 -92 71 0.439381
w 93 -92 -71 0.42107
w 94 93 72 1
w 94 93 -72 1
w 94 -93 72 0
w 94 -93 -72 0
w 95 94 73 0.868896
w 95 94 -73 0.852883
w 95 -94 73 0.587253
w 95 -94 -73 0.348436
w 96 95 74 0
w 96 95 -74 1
w 96 -95 74 0
w 96 -95 -74 0
w 97 96 75 1
w 97 96 -75 0
w 97 -96 75 1
w 97 -96 -75 0
w 98 97 76 0.351344
w 98 97 -76 0.527316
w 98 -97 76 0.83803
w 98 -97 -76 0.963112
w 99 98 77 1
w 99 98 -77 1
w 99 -98 77 0
w 99 -98 -77 1
w 100 99 78 1
w 100 99 -78 0
w 100 -99 78 0
w 100 -99 -78 0
w 101 100 79 0.0818488
w 101 100 -79 0.132517
w 101 -100 79 0.691868
w 101 -100 -79 0.669102
w 102 101 80 1
w 102 101 -80 0
w 102 -101 80 1
w 102 -101 -80 1
w 103 102 81 0
w 103 102 -81 1
w 103 -102 81 0
w 103 -102 -81 0
w 104 103 82 0
w 104 103 -82 1
w 104 -103 82 0
w 104 -103 -82 1
w 105 104 83 0
w 105 104 -83 0
w 105 -104 83 1
w 105 -104 -83 1
w 106 105 84 1
w 106 105 -84 0
w 106 -105 84 0
w 106 -105 -84 1
w 107 106 85 0
w 107 106 -85 1
w 107 -106 85 0
w 107 -106 -85 0
w 108 107 86 0.17803
w 108 107 -86 0.244182
w 108 -107 86 0.717559
w 108 -107 -86 0.398326
w 109 108 87 0
w 109 108 -87 1
w 109 -108 87 0
w 109 -108 -87 0
w 110 109 88 1
w 110 109 -88 0
w 110 -109 88 0
w 110 -109 -88 0
w 111 89 1
w 111 -89 0
w 112 111 90 0.289815
w 112 111 -90 0.788179
w 112 -111 90 0.868444
w 112 -111 -90 0.311125
w 113 112 91 0.614961
w 113 112 -91 0.579658
w 113 -112 91 0.109879
w 113 -112 -91 0.200461
w 114 113 92 0.535056
w 114 113 -92 0.47783
w 114 -113 92 0.949523
w 114 -113 -92 0.441186
w 115 114 93 0
w 115 114 -93 1
w 115 -114 93 1
w 115 -114 -93 0
w 116 115 94 1
w 116 115 -94 0
w 116 -115 94 0
w 116 -115 -94 1
w 117 116 95 0.886042
w 117 116 -95 0.324711
w 117 -116 95 0.876111
w 117 -116 -95 0.576906
w 118 117 96 1
w 118 117 -96 0
w 118 -117 96 0
w 118 -117 -96 1
w 119 118 97 0
w 119 118 -97 0
w 119 -118 97 1
w 119 -118 -97 1
w 120 119 98 1
w 120 119 -98 1
w 120 -119 98 0
w 120 -119 -98 1
w 121 120 99 0
w 121 120 -99 1
w 121 -120 99 0
w 121 -120 -99 0
w 122 121 100 0
w 122 121 -100 1
w 122 -121 100 1
w 122 -121 -100 1
w 123 122 101 1
w 123 122 -101 0
w 123 -122 101 0
w 123 -122 -101 0
w 124 123 102 1
w 124 123 -102 0
w 124 -123 102 1
w 124 -123 -102 1
w 125 124 103 1
w 125 124 -103 1
w 125 -124 103 1
w 125 -124 -103 0
w 126 125 104 0
w 126 125 -104 0
w 126 -125 104 1
w 126 -125 -104 0
w 127 126 105 0
w 127 126 -105 1
w 127 -126 105 1
w 127 -126 -105 1
w 128 127 106 0
w 128 127 -106 1
w 128 -127 106 0
w 128 -127 -106 0
w 129 128 107 0.0857863
w 129 128 -107 0.527649
w 129 -128 107 0.237921
w 129 -128 -107 0.761028
w 130 129 108 1
w 130 129 -108 1
w 130 -129 108 1
w 130 -129 -108 0
w 131 130 109 0
w 131 130 -109 1
w 131 -130 109 1
w 131 -130 -109 0
w 132 131 110 0.389233
w 132 131 -110 0.956384
w 132 -131 110 0.460422
w 132 -131 -110 0.241974
w 133 111 0.59101
w 133 -111 0.349897
w 134 133 112 0
w 134 133 -112 0
w 134 -133 112 1
w 134 -133 -112 0
w 135 134 113 1
w 135 134 -113 0
w 135 -134 113 0
w 135 -134 -113 1
w 136 135 114 0.190556
w 136 135 -114 0.0358633
w 136 -135 114 0.691058
w 136 -135 -114 0.432382
w 137 136 115 0
w 137 136 -115 0
w 137 -136 115 0
w 137 -136 -115 1
w 138 137 116 1
w 138 137 -116 1
w 138 -137 116 0
w 138 -137 -116 1
w 139 138 117 0
w 139 138 -117 0
w 139 -138 117 0
w 139 -138 -117 1
w 140 139 118 0.672008
w 140 139 -118 0.276459
w 140 -139 118 0.829813
w 140 -139 -118 0.125802
w 141 140 119 0
w 141 140 -119 0
w 141 -140 119 1
w 141 -140 -119 0
w 142 141 120 0.114717
w 142 141 -120 0.625548
w 142 -141 120 0.561155
w 142 -141 -120 0.547099
w 143 142 121 1
w 143 142 -121 1
w 143 -142 121 1
w 143 -142 -121 0
w 144 143 122 0.264785
w 144 143 -122 0.875992
w 144 -143 122 0.470347
w 144 -143 -122 0.630981
w 145 144 123 1
w 145 144 -123 0
w 145 -144 123 1
w 145 -144 -123 0
w 146 145 124 1
w 146 145 -124 1
w 146 -145 124 0
w 146 -145 -124 1
w 147 146 125 0.634483
w 147 146 -125 0.0378879
w 147 -146 125 0.922719
w 147 -146 -125 0.224169
w 148 147 126 0.0374369
w 148 147 -126 0.849717
w 148 -147 126 0.46914
w 148 -147 -126 0.584536
w 149 148 127 1
w 149 148 -127 0
w 149 -148 127 0
w 149 -148 -127 1
w 150 149 128 1
w 150 149 -128 0
w 150 -149 128 0
w 150 -149 -128 1
w 151 150 129 0.54793
w 151 150 -129 0.933801
w 151 -150 129 0.500605
w 151 -150 -129 0.875447
w 152 151 130 1
w 152 151 -130 0
w 152 -151 130 0
w 152 -151 -130 0
w 153 152 131 0
w 153 152 -131 0
w 153 -152 131 1
w 153 -152 -131 0
w 154 153 132 0.537731
w 154 153 -132 0.116766
w 154 -153 132 0.722439
w 154 -153 -132 0.00687109
w 155 133 0
w 155 -133 1
w 156 155 134 1
w 156 155 -134 0
w 156 -155 134 0
w 156 -155 -134 0
w 157 156 135 1
w 157 156 -135 0
w 157 -156 135 1
w 157 -156 -135 0
w 158 157 136 1
w 158 157 -136 0
w 158 -157 136 0
w 158 -157 -136 0
w 159 158 137 1
w 159 158 -137 0
w 159 -158 137 0
w 159 -158 -137 0
w 160 159 138 0.920835
w 160 159 -138 0.249514
w 160 -159 138 0.706225
w 160 -159 -138 0.458566
w 161 160 139 0
w 161 160 -139 1
w 161 -160 139 0
w 161 -160 -139 0
w 162 161 140 1
w 162 161 -140 1
w 162 -161 140 0
w 162 -161 -140 1
w 163 162 141 0
w 163 162 -141 0
w 163 -162 141 0
w 163 -162 -141 1
w 164 163 142 0
w 164 163 -142 1
w 164 -163 142 0
w 164 -163 -142 0
w 165 164 143 0
w 165 164 -143 1
w 165 -164 143 0
w 165 -164 -143 0
w 166 165 144 1
w 166 165 -144 1
w 166 -165 144 0
w 166 -165 -144 1
w 167 166 145 1
w 167 166 -145 0
w 167 -166 145 0
w 167 -166 -145 1
w 168 167 146 1
w 168 167 -146 0
w 168 -167 146 0
w 168 -167 -146 0
w 169 168 147 0.63008
w 169 168 -147 0.713437
w 169 -168 147 0.302868
w 169 -168 -147 0.935885
w 170 169 148 1
w 170 169 -148 0
w 170 -169 148 1
w 170 -169 -148 1
w 171 170 149 1
w 171 170 -149 0
w 171 -170 149 0
w 171 -170 -149 1
w 172 171 150 1
w 172 171 -150 0
w 172 -171 150 0
w 172 -171 -150 0
w 173 172 151 1
w 173 172 -151 0
w 173 -172 151 1
w 173 -172 -151 1
w 174 173 152 0
w 174 173 -152 0
w 174 -173 152 1
w 174 -173 -152 1
w 175 174 153 1
w 175 174 -153 0
w 175 -174 153 1
w 175 -174 -153 0
w 176 175 154 0
w 176 175 -154 1
w 176 -175 154 0
w 176 -175 -154 1
w 177 155 0.918624
w 177 -155 0.530567
w 178 177 156 0.535828
w 178 177 -156 0.269036
w 178 -177 156 0.393416
w 178 -177 -156 0.747634
w 179 178 157 0
w 179 178 -157 1
w 179 -178 157 0
w 179 -178 -157 1
w 180 179 158 1
w 180 179 -158 0
w 180 -179 158 0
w 180 -179 -158 1
w 181 180 159 1
w 181 180 -159 0
w 181 -180 159 1
w 181 -180 -159 1
w 182 181 160 0.0752309
w 182 181 -160 0.167108
w 182 -181 160 0.350009
w 182 -181 -160 0.595097
w 183 182 161 1
w 183 182 -161 1
w 183 -182 161 0
w 183 -182 -161 0
w 184 183 162 1
w 184 183 -162 1
w 184 -183 162 0
w 184 -183 -162 1
w 185 184 163 1
w 185 184 -163 1
w 185 -184 163 0
w 185 -184 -163 1
w 186 185 164 0.240401
w 186 185 -164 0.296164
w 186 -185 164 0.280694
w 186 -185 -164 0.0368458
w 187 186 165 1
w 187 186 -165 1
w 187 -186 165 0
w 187 -186 -165 0
w 188 187 166 0.488158
w 188 187 -166 0.532282
w 188 -187 166 0.999837
w 188 -187 -166 0.838167
w 189 188 167 1
w 189 188 -167 0
w 189 -188 167 1
w 189 -188 -167 1
w 190 189 168 0.86758
w 190 189 -168 0.200794
w 190 -189 168 0.918872
w 190 -189 -168 0.753253
w 191 190 169 1
w 191 190 -169 0
w 191 -190 169 0
w 191 -190 -169 1
w 192 191 170 0
w 192 191 -170 1
w 192 -191 170 1
w 192 -191 -170 1
w 193 192 171 0
w 193 192 -171 0
w 193 -192 171 1
w 193 -192 -171 0
w 194 193 172 0
w 194 193 -172 1
w 194 -193 172 1
w 194 -193 -172 0
w 195 194 173 0
w 195 194 -173 1
w 195 -194 173 0
w 195 -194 -173 0
w 196 195 174 1
w 196 195 -174 0
w 196 -195 174 1
w 196 -195 -174 1
w 197 196 175 0
w 197 196 -175 1
w 197 -196 175 1
w 197 -196 -175 1
w 198 197 176 1
w 198 197 -176 1
w 198 -197 176 1
w 198 -197 -176 0
w 199 177 1
w 199 -177 0
w 200 199 178 0
w 200 199 -178 1
w 200 -199 178 1
w 200 -199 -178 1
w 201 200 179 0.336757
w 201 200 -179 0.608964
w 201 -200 179 0.341582
w 201 -200 -179 0.985667
w 202 201 180 0
w 202 201 -180 1
w 202 -201 180 1
w 202 -201 -180 1
w 203 202 181 0.38157
w 203 202 -181 0.405594
w 203 -202 181 0.546776
w 203 -202 -181 0.75564
w 204 203 182 1
w 204 203 -182 1
w 204 -203 182 0
w 204 -203 -182 1
w 205 204 183 1
w 205 204 -183 0
w 205 -204 183 0
w 205 -204 -183 1
w 206 205 184 1
w 206 205 -184 0
w 206 -205 184 0
w 206 -205 -184 1
w 207 206 185 1
w 207 206 -185 0
w 207 -206 185 0
w 207 -206 -185 0
w 208 207 186 1
w 208 207 -186 0
w 208 -207 186 1
w 208 -207 -186 0
w 209 208 187 1
w 209 208 -187 1
w 209 -208 187 1
w 209 -208 -187 0
w 210 209 188 1
w 210 209 -188 0
w 210 -209 188 0
w 210 -209 -188 0
w 211 210 189 1
w 211 210 -189 1
w 211 -210 189 1
w 211 -210 -189 0
w 212 211 190 0
w 212 211 -190 0
w 212 -211 190 1
w 212 -211 -190 1
w 213 212 191 0
w 213 212 -191 1
w 213 -212 191 0
w 213 -212 -191 1
w 214 213 192 0.81387
w 214 213 -192 0.525675
w 214 -213 192 0.982889
w 214 -213 -192 0.920669
w 215 214 193 0.913647
w 215 214 -193 0.409037
w 215 -214 193 0.52186
w 215 -214 -193 0.391181
w 216 215 194 0
w 216 215 -194 0
w 216 -215 194 1
w 216 -215 -194 0
w 217 216 195 1
w 217 216 -195 1
w 217 -216 195 0
w 217 -216 -195 0
w 218 217 196 0
w 218 217 -196 0
w 218 -217 196 1
w 218 -217 -196 0
w 219 218 197 1
w 219 218 -197 1
w 219 -218 197 0
w 219 -218 -197 0
w 220 219 198 1
w 220 219 -198 0
w 220 -219 198 0
w 220 -219 -198 0
w 221 199 0
w 221 -199 1
w 222 221 200 1
w 222 221 -200 1
w 222 -221 200 1
w 222 -221 -200 0
w 223 222 201 1
w 223 222 -201 0
w 223 -222 201 1
w 223 -222 -201 0
w 224 223 202 1
w 224 223 -202 0
w 224 -223 202 0
w 224 -223 -202 1
w 225 224 203 0.980855
w 225 224 -203 0.148799
w 225 -224 203 0.709731
w 225 -224 -203 0.168481
w 226 225 204 0
w 226 225 -204 1
w 226 -225 204 0
w 226 -225 -204 1
w 227 226 205 0
w 227 226 -205 1
w 227 -226 205 1
w 227 -226 -205 1
w 228 227 206 0
w 228 227 -206 0
w 228 -227 206 0
w 228 -227 -206 1
w 229 228 207 1
w 229 228 -207 0
w 229 -228 207 1
w 229 -228 -207 1
w 230 229 208 0
w 230 229 -208 0
w 230 -229 208 1
w 230 -229 -208 1
w 231 230 209 1
w 231 230 -209 1
w 231 -230 209 0
w 231 -230 -209 0
w 232 231 210 0.304737
w 232 231 -210 0.766585
w 232 -231 210 0.868717
w 232 -231 -210 0.395744
w 233 232 211 0
w 233 232 -211 1
w 233 -232 211 0
w 233 -232 -211 1
w 234 233 212 1
w 234 233 -212 0
w 234 -233 212 1
w 234 -233 -212 0
w 235 234 213 0.575221
w 235 234 -213 0.0140617
w 235 -234 213 0.923972
w 235 -234 -213 0.453011
w 236 235 214 0
w 236 235 -214 1
w 236 -235 214 1
w 236 -235 -214 1
w 237 236 215 0
w 237 236 -215 1
w 237 -236 215 1
w 237 -236 -215 0
w 238 237 216 0.970775
w 238 237 -216 0.800442
w 238 -237 216 0.569127
w 238 -237 -216 0.839492
w 239 238 217 0
w 239 238 -217 1
w 239 -238 217 1
w 239 -238 -217 1
w 240 239 218 0.776129
w 240 239 -218 0.93569
w 240 -239 218 0.0522307
w 240 -239 -218 0.479699
w 241 240 219 1
w 241 240 -219 1
w 241 -240 219 0
w 241 -240 -219 0
w 242 241 220 1
w 242 241 -220 1
w 242 -241 220 0
w 242 -241 -220 0
w 243 221 0
w 243 -221 1
w 244 243 222 1
w 244 243 -222 0
w 244 -243 222 0
w 244 -243 -222 1
w 245 244 223 0
w 245 244 -223 0
w 245 -244 223 0
w 245 -244 -223 1
w 246 245 224 0.240448
w 246 245 -224 0.185092
w 246 -245 224 0.773925
w 246 -245 -224 0.0165776
w 247 246 225 0
w 247 246 -225 1
w 247 -246 225 0
w 247 -246 -225 1
w 248 247 226 0
w 248 247 -226 0
w 248 -247 226 1
w 248 -247 -226 1
w 249 248 227 0.932202
w 249 248 -227 0.575399
w 249 -248 227 0.270856
w 249 -248 -227 0.429035
w 250 249 228 0.267977
w 250 249 -228 0.957045
w 250 -249 228 0.900568
w 250 -249 -228 0.0676404
w 251 250 229 0
w 251 250 -229 1
w 251 -250 229 0
w 251 -250 -229 0
w 252 251 230 0
w 252 251 -230 1
w 252 -251 230 1
w 252 -251 -230 1
w 253 252 231 0
w 253 252 -231 0
w 253 -252 231 0
w 253 -252 -231 1
w 254 253 232 0.71214
w 254 253 -232 0.743525
w 254 -253 232 0.882139
w 254 -253 -232 0.487222
w 255 254 233 1
w 255 254 -233 1
w 255 -254 233 0
w 255 -254 -233 0
w 256 255 234 1
w 256 255 -234 0
w 256 -255 234 0
w 256 -255 -234 1
w 257 256 235 0
w 257 256 -235 1
w 257 -256 235 1
w 257 -256 -235 1
w 258 257 236 1
w 258 257 -236 1
w 258 -257 236 0
w 258 -257 -236 0
w 259 258 237 0
w 259 258 -237 0
w 259 -258 237 1
w 259 -258 -237 0
w 260 259 238 0
w 260 259 -238 1
w 260 -259 238 1
w 260 -259 -238 0
w 261 260 239 0
w 261 260 -239 0
w 261 -260 239 0
w 261 -260 -239 1
w 262 261 240 0.101273
w 262 261 -240 0.852874
w 262 -261 240 0.799157
w 262 -261 -240 0.23104
w 263 262 241 0
w 263 262 -241 1
w 263 -262 241 0
w 263 -262 -241 1
w 264 263 242 1
w 264 263 -242 0
w 264 -263 242 1
w 264 -263 -242 1
w 265 243 0.530732
w 265 -243 0.61243
w 266 265 244 0.0618344
w 266 265 -244 0.590605
w 266 -265 244 0.509403
w 266 -265 -244 0.305076
w 267 266 245 1
w 267 266 -245 0
w 267 -266 245 1
w 267 -266 -245 0
w 268 267 246 0.596446
w 268 267 -246 0.165673
w 268 -267 246 0.674463
w 268 -267 -246 0.697719
w 269 268 247 1
w 269 268 -247 0
w 269 -268 247 0
w 269 -268 -247 0
w 270 269 248 1
w 270 269 -248 0
w 270 -269 248 1
w 270 -269 -248 1
w 271 270 249 1
w 271 270 -249 1
w 271 -270 249 0
w 271 -270 -249 1
w 272 271 250 1
w 272 271 -250 1
w 272 -271 250 0
w 272 -271 -250 1
w 273 272 251 0.891748
w 273 272 -251 0.0432421
w 273 -272 251 0.373053
w 273 -272 -251 0.404968
w 274 273 252 0.969499
w 274 273 -252 0.570641
w 274 -273 252 0.546331
w 274 -273 -252 0.667218
w 275 274 253 0
w 275 274 -253 0
w 275 -274 253 1
w 275 -274 -253 1
w 276 275 254 1
w 276 275 -254 0
w 276 -275 254 1
w 276 -275 -254 1
w 277 276 255 0
w 277 276 -255 0
w 277 -276 255 1
w 277 -276 -255 1
w 278 277 256 1
w 278 277 -256 0
w 278 -277 256 0
w 278 -277 -256 1
w 279 278 257 0
w 279 278 -257 1
w 279 -278 257 0
w 279 -278 -257 0
w 280 279 258 1
w 280 279 -258 0
w 280 -279 258 1
w 280 -279 -258 1
w 281 280 259 1
w 281 280 -259 0
w 281 -280 259 0
w 281 -280 -259 0
w 282 281 260 0.653499
w 282 281 -260 0.441058
w 282 -281 260 0.0801846
w 282 -281 -260 0.791384
w 283 282 261 1
w 283 282 -261 0
w 283 -282 261 1
w 283 -282 -261 1
w 284 283 262 0.53471
w 284 283 -262 0.470464
w 284 -283 262 0.519419
w 284 -283 -262 0.444736
w 285 284 263 1
w 285 284 -263 0
w 285 -284 263 1
w 285 -284 -263 0
w 286 285 264 1
w 286 285 -264 1
w 286 -285 264 1
w 286 -285 -264 0
w 287 265 1
w 287 -265 0
w 288 287 266 1
w 288 287 -266 1
w 288 -287 266 0
w 288 -287 -266 0
w 289 288 267 0
w 289 288 -267 1
w 289 -288 267 0
w 289 -288 -267 1
w 290 289 268 1
w 290 289 -268 0
w 290 -289 268 0
w 290 -289 -268 0
w 291 290 269 0.695542
w 291 290 -269 0.336436
w 291 -290 269 0.32108
w 291 -290 -269 0.429643
w 292 291 270 1
w 292 291 -270 1
w 292 -291 270 0
w 292 -291 -270 0
w 293 292 271 0.490649
w 293 292 -271 0.0986115
w 293 -292 271 0.349798
w 293 -292 -271 0.826101
w 294 293 272 1
w 294 293 -272 1
w 294 -293 272 1
w 294 -293 -272 0
w 295 294 273 0
w 295 294 -273 0
w 295 -294 273 1
w 295 -294 -273 0
w 296 295 274 0
w 296 295 -274 1
w 296 -295 274 0
w 296 -295 -274 0
w 297 296 275 1
w 297 296 -275 0
w 297 -296 275 0
w 297 -296 -275 1
w 298 297 276 1
w 298 297 -276 0
w 298 -297 276 0
w 298 -297 -276 0
w 299 298 277 0
w 299 298 -277 1
w 299 -298 277 1
w 299 -298 -277 0
w 300 299 278 0
w 300 299 -278 0
w 300 -299 278 1
w 300 -299 -278 0
w 301 300 279 1
w 301 300 -279 1
w 301 -300 279 0
w 301 -300 -279 1
w 302 301 280 0
w 302 301 -280 1
w 302 -301 280 1
w 302 -301 -280 0
w 303 302 281 0.160456
w 303 302 -281 0.309251
w 303 -302 281 0.430082
w 303 -302 -281 0.28101
w 304 303 282 0.41186
w 304 303 -282 0.893157
w 304 -303 282 0.849962
w 304 -303 -282 0.609335
w 305 304 283 0
w 305 304 -283 0
w 305 -304 283 0
w 305 -304 -283 1
w 306 305 284 0.381466
w 306 305 -284 0.29703
w 306 -305 284 0.567913
w 306 -305 -284 0.601574
w 307 306 285 0.919995
w 307 306 -285 0.456505
w 307 -306 285 0.641758
w 307 -306 -285 0.301963
w 308 307 286 0.0796111
w 308 307 -286 0.944459
w 308 -307 286 0.508682
w 308 -307 -286 0.440593
w 309 287 1
w 309 -287 0
w 310 309 288 1
w 310 309 -288 1
w 310 -309 288 0
w 310 -309 -288 1
w 311 310 289 0
w 311 310 -289 1
w 311 -310 289 1
w 311 -310 -289 1
w 312 311 290 0
w 312 311 -290 0
w 312 -311 290 0
w 312 -311 -290 1
w 313 312 291 0
w 313 312 -291 0
w 313 -312 291 1
w 313 -312 -291 0
w 314 313 292 1
w 314 313 -292 1
w 314 -313 292 1
w 314 -313 -292 0
w 315 314 293 1
w 315 314 -293 1
w 315 -314 293 0
w 315 -314 -293 1
w 316 315 294 0.143639
w 316 315 -294 0.161022
w 316 -315 294 0.777396
w 316 -315 -294 0.025698
w 317 316 295 0
w 317 316 -295 1
w 317 -316 295 0
w 317 -316 -295 0
w 318 317 296 0.315356
w 318 317 -296 0.0550533
w 318 -317 296 0.621765
w 318 -317 -296 0.613553
w 319 318 297 0
w 319 318 -297 0
w 319 -318 297 1
w 319 -318 -297 1
w 320 319 298 1
w 320 319 -298 0
w 320 -319 298 1
w 320 -319 -298 1
w 321 320 299 0.713788
w 321 320 -299 0.496674
w 321 -320 299 0.302338
w 321 -320 -299 0.256378
w 322 321 300 0
w 322 321 -300 1
w 322 -321 300 1
w 322 -321 -300 0
w 323 322 301 0
w 323 322 -301 0
w 323 -322 301 1
w 323 -322 -301 0
w 324 323 302 0.0689992
w 324 323 -302 0.829832
w 324 -323 302 0.995854
w 324 -323 -302 0.690764
w 325 324 303 1
w 325 324 -303 0
w 325 -324 303 1
w 325 -324 -303 0
w 326 325 304 0
w 326 325 -304 0
w 326 -325 304 0
w 326 -325 -304 1
w 327 326 305 1
w 327 326 -305 0
w 327 -326 305 1
w 327 -326 -305 1
w 328 327 306 0.181252
w 328 327 -306 0.101364
w 328 -327 306 0.223547
w 328 -327 -306 0.61816
w 329 328 307 0
w 329 328 -307 1
w 329 -328 307 0
w 329 -328 -307 1
w 330 329 308 1
w 330 329 -308 1
w 330 -329 308 0
w 330 -329 -308 1
w 331 309 1
w 331 -309 0
w 332 331 310 1
w 332 331 -310 0
w 332 -331 310 1
w 332 -331 -310 1
w 333 332 311 1
w 333 332 -311 0
w 333 -332 311 0
w 333 -332 -311 0
w 334 333 312 0
w 334 333 -312 1
w 334 -333 312 1
w 334 -333 -312 1
w 335 334 313 0.436197
w 335 334 -313 0.666965
w 335 -334 313 0.445748
w 335 -334 -313 0.552706
w 336 335 314 0
w 336 335 -314 1
w 336 -335 314 1
w 336 -335 -314 1
w 337 336 315 1
w 337 336 -315 0
w 337 -336 315 1
w 337 -336 -315 0
w 338 337 316 1
w 338 337 -316 0
w 338 -337 316 0
w 338 -337 -316 0
w 339 338 317 0
w 339 338 -317 0
w 339 -338 317 1
w 339 -338 -317 0
w 340 339 318 1
w 340 339 -318 0
w 340 -339 318 1
w 340 -339 -318 0
w 341 340 319 0
w 341 340 -319 1
w 341 -340 319 0
w 341 -340 -319 1
w 342 341 320 1
w 342 341 -320 0
w 342 -341 320 1
w 342 -341 -320 0
w 343 342 321 1
w 343 342 -321 1
w 343 -342 321 1
w 343 -342 -321 0
w 344 343 322 0
w 344 343 -322 1
w 344 -343 322 0
w 344 -343 -322 0
w 345 344 323 1
w 345 344 -323 0
w 345 -344 323 1
w 345 -344 -323 1
w 346 345 324 1
w 346 345 -324 0
w 346 -345 324 1
w 346 -345 -324 0
w 347 346 325 0
w 347 346 -325 0
w 347 -346 325 1
w 347 -346 -325 0
w 348 347 326 1
w 348 347 -326 1
w 348 -347 326 0
w 348 -347 -326 0
w 349 348 327 0.39203
w 349 348 -327 0.169719
w 349 -348 327 0.386917
w 349 -348 -327 0.122323
w 350 349 328 1
w 350 349 -328 1
w 350 -349 328 0
w 350 -349 -328 0
w 351 350 329 0
w 351 350 -329 1
w 351 -350 329 0
w 351 -350 -329 1
w 352 351 330 1
w 352 351 -330 0
w 352 -351 330 0
w 352 -351 -330 0
w 353 331 0
w 353 -331 1
w 354 353 332 0
w 354 353 -332 1
w 354 -353 332 1
w 354 -353 -332 1
w 355 354 333 0.639307
w 355 354 -333 0.393541
w 355 -354 333 0.778884
w 355 -354 -333 0.0313367
w 356 355 334 0
w 356 355 -334 1
w 356 -355 334 0
w 356 -355 -334 1
w 357 356 335 0
w 357 356 -335 1
w 357 -356 335 1
w 357 -356 -335 0
w 358 357 336 0
w 358 357 -336 0
w 358 -357 336 0
w 358 -357 -336 1
w 359 358 337 0
w 359 358 -337 0
w 359 -358 337 1
w 359 -358 -337 0
w 360 359 338 1
w 360 359 -338 1
w 360 -359 338 0
w 360 -359 -338 0
w 361 360 339 0
w 361 360 -339 0
w 361 -360 339 1
w 361 -360 -339 0
w 362 361 340 1
w 362 361 -340 0
w 362 -361 340 0
w 362 -361 -340 1
w 363 362 341 1
w 363 362 -341 1
w 363 -362 341 1
w 363 -362 -341 0
w 364 363 342 0.187662
w 364 363 -342 0.588604
w 364 -363 342 0.833785
w 364 -363 -342 0.142799
w 365 364 343 0.424573
w 365 364 -343 0.804305
w 365 -364 343 0.215037
w 365 -364 -343 0.305191
w 366 365 344 0.931398
w 366 365 -344 0.881595
w 366 -365 344 0.397052
w 366 -365 -344 0.446675
w 367 366 345 1
w 367 366 -345 1
w 367 -366 345 0
w 367 -366 -345 0
w 368 367 346 0
w 368 367 -346 1
w 368 -367 346 0
w 368 -367 -346 0
w 369 368 347 0
w 369 368 -347 1
w 369 -368 347 0
w 369 -368 -347 1
w 370 369 348 0
w 370 369 -348 1
w 370 -369 348 0
w 370 -369 -348 0
w 371 370 349 0
w 371 370 -349 1
w 371 -370 349 1
w 371 -370 -349 0
w 372 371 350 0
w 372 371 -350 1
w 372 -371 350 0
w 372 -371 -350 1
w 373 372 351 1
w 373 372 -351 0
w 373 -372 351 1
w 373 -372 -351 1
w 374 373 352 0.473273
w 374 373 -352 0.123024
w 374 -373 352 0.572795
w 374 -373 -352 0.93177
w 375 353 1
w 375 -353 0
w 376 375 354 0
w 376 375 -354 1
w 376 -375 354 0
w 376 -375 -354 0
w 377 376 355 0.469307
w 377 376 -355 0.277908
w 377 -376 355 0.439575
w 377 -376 -355 0.0801092
w 378 377 356 1
w 378 377 -356 1
w 378 -377 356 1
w 378 -377 -356 0
w 379 378 357 1
w 379 378 -357 0
w 379 -378 357 1
w 379 -378 -357 1
w 380 379 358 1
w 380 379 -358 1
w 380 -379 358 1
w 380 -379 -358 0
w 381 380 359 0.283737
w 381 380 -359 0.659072
w 381 -380 359 0.705117
w 381 -380 -359 0.982531
w 382 381 360 0.42608
w 382 381 -360 0.599445
w 382 -381 360 0.0258723
w 382 -381 -360 0.427384
w 383 382 361 0.887705
w 383 382 -361 0.896691
w 383 -382 361 0.0304607
w 383 -382 -361 0.32728
w 384 383 362 0.228045
w 384 383 -362 0.76917
w 384 -383 362 0.472017
w 384 -383 -362 0.560342
w 385 384 363 1
w 385 384 -363 0
w 385 -384 363 1
w 385 -384 -363 0
w 386 385 364 0.856239
w 386 385 -364 0.731782
w 386 -385 364 0.17002
w 386 -385 -364 0.0169516
w 387 386 365 0.943368
w 387 386 -365 0.300688
w 387 -386 365 0.477131
w 387 -386 -365 0.648485
w 388 387 366 0
w 388 387 -366 1
w 388 -387 366 0
w 388 -387 -366 1
w 389 388 367 0
w 389 388 -367 1
w 389 -388 367 0
w 389 -388 -367 1
w 390 389 368 1
w 390 389 -368 0
w 390 -389 368 1
w 390 -389 -368 0
w 391 390 369 0
w 391 390 -369 1
w 391 -390 369 1
w 391 -390 -369 1
w 392 391 370 1
w 392 391 -370 1
w 392 -391 370 0
w 392 -391 -370 1
w 393 392 371 0
w 393 392 -371 0
w 393 -392 371 0
w 393 -392 -371 1
w 394 393 372 0.871978
w 394 393 -372 0.119198
w 394 -393 372 0.710549
w 394 -393 -372 0.282978
w 395 394 373 0
w 395 394 -373 1
w 395 -394 373 1
w 395 -394 -373 1
w 396 395 374 0
w 396 395 -374 1
w 396 -395 374 0
w 396 -395 -374 1
w 397 375 0
w 397 -375 1
w 398 397 376 0
w 398 397 -376 0
w 398 -397 376 0
w 398 -397 -376 1
w 399 398 377 1
w 399 398 -377 1
w 399 -398 377 1
w 399 -398 -377 0
w 400 399 378 0.401906
w 400 399 -378 0.948367
w 400 -399 378 0.73089
w 400 -399 -378 0.273884
w 401 400 379 0
w 401 400 -379 1
w 401 -400 379 0
w 401 -400 -379 0
w 402 401 380 0
w 402 401 -380 1
w 402 -401 380 0
w 402 -401 -380 0
w 403 402 381 0
w 403 402 -381 1
w 403 -402 381 1
w 403 -402 -381 1
w 404 403 382 0
w 404 403 -382 1
w 404 -403 382 0
w 404 -403 -382 1
w 405 404 383 1
w 405 404 -383 0
w 405 -404 383 1
w 405 -404 -383 0
w 406 405 384 0
w 406 405 -384 0
w 406 -405 384 0
w 406 -405 -384 1
w 407 406 385 0.317147
w 407 406 -385 0.900947
w 407 -406 385 0.36694
w 407 -406 -385 0.00585939
w 408 407 386 1
w 408 407 -386 0
w 408 -407 386 0
w 408 -407 -386 0
w 409 408 387 0
w 409 408 -387 0
w 409 -408 387 0
w 409 -408 -387 1
w 410 409 388 0.0887557
w 410 409 -388 0.619235
w 410 -409 388 0.0786139
w 410 -409 -388 0.978651
w 411 410 389 1
w 411 410 -389 0
w 411 -410 389 1
w 411 -410 -389 1
w 412 411 390 0
w 412 411 -390 1
w 412 -411 390 1
w 412 -411 -390 1
w 413 412 391 0.244076
w 413 412 -391 0.00119455
w 413 -412 391 0.145344
w 413 -412 -391 0.249936
w 414 413 392 1
w 414 413 -392 0
w 414 -413 392 1
w 414 -413 -392 1
w 415 414 393 1
w 415 414 -393 1
w 415 -414 393 1
w 415 -414 -393 0
w 416 415 394 1
w 416 415 -394 1
w 416 -415 394 1
w 416 -415 -394 0
w 417 416 395 1
w 417 416 -395 1
w 417 -416 395 0
w 417 -416 -395 0
w 418 417 396 0.488527
w 418 417 -396 0.668251
w 418 -417 396 0.928443
w 418 -417 -396 0.26693
w 419 397 0.929637
w 419 -397 0.412274
w 420 419 398 1
w 420 419 -398 1
w 420 -419 398 1
w 420 -419 -398 0
w 421 420 399 0
w 421 420 -399 0
w 421 -420 399 1
w 421 -420 -399 0
w 422 421 400 0.438486
w 422 421 -400 0.567445
w 422 -421 400 0.491528
w 422 -421 -400 0.627308
w 423 422 401 0
w 423 422 -401 0
w 423 -422 401 1
w 423 -422 -401 1
w 424 423 402 1
w 424 423 -402 1
w 424 -423 402 1
w 424 -423 -402 0
w 425 424 403 0.721399
w 425 424 -403 0.565243
w 425 -424 403 0.776369
w 425 -424 -403 0.133673
w 426 425 404 1
w 426 425 -404 1
w 426 -425 404 1
w 426 -425 -404 0
w 427 426 405 0.763009
w 427 426 -405 0.352392
w 427 -426 405 0.631309
w 427 -426 -405 0.618843
w 428 427 406 1
w 428 427 -406 1
w 428 -427 406 0
w 428 -427 -406 1
w 429 428 407 0
w 429 428 -407 1
w 429 -428 407 0
w 429 -428 -407 1
w 430 429 408 1
w 430 429 -408 1
w 430 -429 408 1
w 430 -429 -408 0
w 431 430 409 1
w 431 430 -409 0
w 431 -430 409 1
w 431 -430 -409 1
w 432 431 410 1
w 432 431 -410 0
w 432 -431 410 1
w 432 -431 -410 1
w 433 432 411 0.224366
w 433 432 -411 0.596375
w 433 -432 411 0.169462
w 433 -432 -411 0.855675
w 434 433 412 0
w 434 433 -412 0
w 434 -433 412 0
w 434 -433 -412 1
w 435 434 413 0.736079
w 435 434 -413 0.222316
w 435 -434 413 0.935163
w 435 -434 -413 0.785051
w 436 435 414 0.890804
w 436 435 -414 0.818687
w 436 -435 414 0.520279
w 436 -435 -414 0.300913
w 437 436 415 1
w 437 436 -415 1
w 437 -436 415 1
w 437 -436 -415 0
w 438 437 416 0
w 438 437 -416 0
w 438 -437 416 1
w 438 -437 -416 1
w 439 438 417 0
w 439 438 -417 0
w 439 -438 417 1
w 439 -438 -417 1
w 440 439 418 1
w 440 439 -418 1
w 440 -439 418 0
w 440 -439 -418 0
w 441 419 0.728265
w 441 -419 0.790201
w 442 441 420 0
w 442 441 -420 1
w 442 -441 420 0
w 442 -441 -420 0
w 443 442 421 0
w 443 442 -421 1
w 443 -442 421 1
w 443 -442 -421 1
w 444 443 422 0
w 444 443 -422 1
w 444 -443 422 1
w 444 -443 -422 0
w 445 444 423 0
w 445 444 -423 0
w 445 -444 423 1
w 445 -444 -423 0
w 446 445 424 0
w 446 445 -424 1
w 446 -445 424 0
w 446 -445 -424 0
w 447 446 425 0.292422
w 447 446 -425 0.104127
w 447 -446 425 0.720974
w 447 -446 -425 0.0206869
w 448 447 426 0.730933
w 448 447 -426 0.684115
w 448 -447 426 0.469579
w 448 -447 -426 0.653046
w 449 448 427 1
w 449 448 -427 1
w 449 -448 427 1
w 449 -448 -427 0
w 450 449 428 0
w 450 449 -428 0
w 450 -449 428 0
w 450 -449 -428 1
w 451 450 429 0.593705
w 451 450 -429 0.510961
w 451 -450 429 0.773706
w 451 -450 -429 0.700562
w 452 451 430 1
w 452 451 -430 0
w 452 -451 430 1
w 452 -451 -430 1
w 453 452 431 0
w 453 452 -431 1
w 453 -452 431 0
w 453 -452 -431 0
w 454 453 432 1
w 454 453 -432 1
w 454 -453 432 0
w 454 -453 -432 1
w 455 454 433 1
w 455 454 -433 1
w 455 -454 433 0
w 455 -454 -433 1
w 456 455 434 0
w 456 455 -434 0
w 456 -455 434 1
w 456 -455 -434 1
w 457 456 435 1
w 457 456 -435 0
w 457 -456 435 0
w 457 -456 -435 1
w 458 457 436 1
w 458 457 -436 1
w 458 -457 436 0
w 458 -457 -436 1
w 459 458 437 0
w 459 458 -437 0
w 459 -458 437 1
w 459 -458 -437 0
w 460 459 438 0
w 460 459 -438 1
w 460 -459 438 0
w 460 -459 -438 1
w 461 460 439 1
w 461 460 -439 0
w 461 -460 439 1
w 461 -460 -439 1
w 462 461 440 1
w 462 461 -440 1
w 462 -461 440 0
w 462 -461 -440 0
w 463 441 0.761987
w 463 -441 0.261847
w 464 463 442 0.537205
w 464 463 -442 0.147542
w 464 -463 442 0.961928
w 464 -463 -442 0.214458
w 465 464 443 0
w 465 464 -443 1
w 465 -464 443 1
w 465 -464 -443 1
w 466 465 444 0.44592
w 466 465 -444 0.614097
w 466 -465 444 0.466036
w 466 -465 -444 0.688885
w 467 466 445 1
w 467 466 -445 1
w 467 -466 445 1
w 467 -466 -445 0
w 468 467 446 0.429151
w 468 467 -446 0.626539
w 468 -467 446 0.294016
w 468 -467 -446 0.865504
w 469 468 447 0
w 469 468 -447 0
w 469 -468 447 1
w 469 -468 -447 0
w 470 469 448 0
w 470 469 -448 1
w 470 -469 448 1
w 470 -469 -448 0
w 471 470 449 1
w 471 470 -449 0
w 471 -470 449 0
w 471 -470 -449 0
w 472 471 450 0
w 472 471 -450 1
w 472 -471 450 0
w 472 -471 -450 1
w 473 472 451 1
w 473 472 -451 0
w 473 -472 451 1
w 473 -472 -451 1
w 474 473 452 0
w 474 473 -452 1
w 474 -473 452 0
w 474 -473 -452 0
w 475 474 453 0.265887
w 475 474 -453 0.654298
w 475 -474 453 0.0516001
w 475 -474 -453 0.898464
w 476 475 454 0
w 476 475 -454 1
w 476 -475 454 1
w 476 -475 -454 1
w 477 476 455 1
w 477 476 -455 1
w 477 -476 455 0
w 477 -476 -455 1
w 478 477 456 0
w 478 477 -456 1
w 478 -477 456 0
w 478 -477 -456 0
w 479 478 457 0
w 479 478 -457 1
w 479 -478 457 1
w 479 -478 -457 0
w 480 479 458 0.139231
w 480 479 -458 0.0812404
w 480 -479 458 0.332404
w 480 -479 -458 0.0343877
w 481 480 459 0.235005
w 481 480 -459 0.300275
w 481 -480 459 0.599968
w 481 -480 -459 0.286605
w 482 481 460 0
w 482 481 -460 1
w 482 -481 460 1
w 482 -481 -460 1
w 483 482 461 0
w 483 482 -461 1
w 483 -482 461 1
w 483 -482 -461 1
w 484 483 462 1
w 484 483 -462 0
w 484 -483 462 0
w 484 -483 -462 1